#######################



#######################
Set parameter TimeLimit to value 500
Set parameter SoftMemLimit to value 125
Set parameter MIPFocus to value 3
Set parameter LogFile to value 1202-MIPFocus3-Presolve2-TimeLimit500-k16x240-8.log
Set parameter Presolve to value 2
Set parameter Seed to value 18
Using license file /opt/gurobi/gurobi.lic

Gurobi Optimizer version 12.0.2 build v12.0.2rc0 (linux64 - "Ubuntu 22.04.4 LTS")
Copyright (c) 2025, Gurobi Optimization, LLC

Read MPS format model from file /miplib2010/k16x240.mps.bz2
Reading time = 0.00 seconds
k16x240: 256 rows, 480 columns, 960 nonzeros

Using Gurobi shared library /nfs/shared/static-builds/gurobi1202

CPU model: Intel(R) Xeon(R) E-2388G CPU @ 3.20GHz, instruction set [SSE2|AVX|AVX2|AVX512]
Thread count: 8 physical cores, 16 logical processors, using up to 16 threads

Non-default parameters:
TimeLimit  500
SoftMemLimit  125
MIPFocus  3
Presolve  2
Seed  18

Optimize a model with 256 rows, 480 columns and 960 nonzeros
Model fingerprint: 0x4e80885f
Variable types: 240 continuous, 240 integer (240 binary)
Coefficient statistics:
  Matrix range     [1e+00, 1e+03]
  Objective range  [1e+00, 1e+03]
  Bounds range     [1e+00, 1e+03]
  RHS range        [4e+00, 4e+02]
Found heuristic solution: objective 19474.000000
Presolve time: 0.00s
Presolved: 256 rows, 480 columns, 960 nonzeros
Variable types: 240 continuous, 240 integer (240 binary)
Root relaxation presolve removed 241 rows and 240 columns
Root relaxation presolved: 15 rows, 240 columns, 450 nonzeros


Root relaxation: objective 2.769838e+03, 16 iterations, 0.00 seconds (0.00 work units)

    Nodes    |    Current Node    |     Objective Bounds      |     Work
 Expl Unexpl |  Obj  Depth IntInf | Incumbent    BestBd   Gap | It/Node Time

     0     0 2769.83800    0   14 19474.0000 2769.83800  85.8%     -    0s
H    0     0                    11359.000000 2769.83800  75.6%     -    0s
H    0     0                    11342.000000 2769.83800  75.6%     -    0s
H    0     0                    11261.000000 8116.87580  27.9%     -    0s
H    0     0                    11240.000000 8116.87580  27.8%     -    0s
H    0     0                    11041.000000 8116.87580  26.5%     -    0s
     0     0 8116.87580    0   26 11041.0000 8116.87580  26.5%     -    0s
H    0     0                    10975.000000 8182.85928  25.4%     -    0s
H    0     0                    10971.000000 8182.85928  25.4%     -    0s
H    0     0                    10879.000000 8182.85928  24.8%     -    0s
H    0     0                    10875.000000 8182.85928  24.8%     -    0s
     0     0 8751.29955    0   23 10875.0000 8751.29955  19.5%     -    0s
     0     0 8810.95744    0   19 10875.0000 8810.95744  19.0%     -    0s
     0     0 8812.41722    0   21 10875.0000 8812.41722  19.0%     -    0s
     0     0 8812.41722    0   23 10875.0000 8812.41722  19.0%     -    0s
     0     0 8812.41722    0   24 10875.0000 8812.41722  19.0%     -    0s
     0     0 9053.09346    0   39 10875.0000 9053.09346  16.8%     -    0s
H    0     0                    10869.000000 9053.09346  16.7%     -    0s
H    0     0                    10765.000000 9053.09346  15.9%     -    0s
     0     0 9056.44984    0   27 10765.0000 9056.44984  15.9%     -    0s
     0     0 9093.40926    0   37 10765.0000 9093.40926  15.5%     -    0s
     0     0 9093.40926    0   36 10765.0000 9093.40926  15.5%     -    0s
H    0     0                    10681.000000 9095.39212  14.8%     -    0s
     0     2 9095.39212    0   36 10681.0000 9095.39212  14.8%     -    0s
H   26    59                    10678.000000 9217.47522  13.7%  77.5    0s
H 1517  1439                    10674.000000 9578.75301  10.3%  45.0    1s
  3901  2853 10449.6375   29   29 10674.0000 10236.8331  4.10%   102    5s
 15698  8092 10489.4774   33   31 10674.0000 10481.4900  1.80%  76.5   10s

Cutting planes:
  Gomory: 1
  Lift-and-project: 6
  Implied bound: 7
  Dual implied bound: 3
  MIR: 142
  Flow cover: 520
  Flow path: 39
  Zero half: 25
  Network: 21
  Relax-and-lift: 1

Explored 42870 nodes (1902947 simplex iterations) in 14.75 seconds (21.13 work units)
Thread count was 16 (of 16 available processors)

Solution count 10: 10674 10678 10681 ... 11041

Optimal solution found (tolerance 1.00e-04)
Best objective 1.067400000000e+04, best bound 1.067300000000e+04, gap 0.0094%
